244 300 146 193 147 115 120 168 195 190 146 166 168 197 112 151 111 107 173 150 102 128 195 191 125 200 149 168 173 128 141 155 165 187 147 112 168 167 146 128 123 158 161 191 154 173 107 166 146 180 182 148 107 176 138 200 142 187 133 181 182 174 135 112 126 183 191 160 115 137 154 138 195 114 195 115 187 168 147 133 148 128 147 121 170 152 187 111 104 119 158 186 159 194 165 185 142 155 110 123 158 165 128 119 179 189 134 132 157 181 131 171 175 178 192 110 196 145 122 100 164 146 152 123 139 116 174 147 138 151 137 162 115 165 181 160 153 181 192 176 127 122 146 101 167 104 112 162 149 100 128 179 146 181 101 152 163 142 165 100 193 101 163 174 132 109 133 152 191 192 127 184 180 140 186 146 144 164 175 159 130 102 137 142 149 105 160 112 147 125 112 105 193 141 145 192 117 144 143 174 135 136 157 182 176 108 194 186 172 168 144 168 137 148 110 186 153 136 198 166 161 177 137 120 184 182 178 100 125 120 140 127 122 198 175 165 105 168 116 144 102 127 178 139 175 188 